
Value of objective function: 60.00000000

Actual values of the variables:
t1                              0
t2                              1
t3                              0
t4                              1
t5                              0
t6                              1
t7                              0
t8                              0
t9                              1
t10                             1
t11                             1
t12                             1
t13                             1
t14                             1
t15                             1
t16                             1
t17                             0
t18                             0
t19                             1
t20                             0
t21                             0
t22                             1
t23                             0
t24                             1
t25                             1
t26                             1
t27                             1
t28                             0
t29                             1
t30                             1
t31                             0
t32                             1
t33                             0
t34                             1
t35                             1
t36                             1
t37                             1
t38                             0
t39                             1
t40                             1
t41                             1
t42                             0
t43                             1
t44                             0
t45                             1
t46                             1
t47                             1
t48                             1
t49                             1
t50                             0
t51                             0
t52                             1
t53                             0
t54                             0
t55                             0
t56                             1
t57                             0
t58                             1
t59                             1
t60                             0
t61                             0
t62                             0
t63                             0
t64                             0
t65                             1
t66                             0
t67                             0
t68                             1
t69                             1
t70                             1
t71                             1
t72                             0
t73                             0
t74                             1
t75                             0
t76                             1
t77                             1
t78                             0
t79                             0
t80                             1
t81                             1
t82                             1
t83                             0
t84                             1
t85                             1
t86                             1
t87                             1
t88                             0
t89                             1
t90                             0
t91                             1
t92                             1
t93                             1
t94                             0
t95                             1
t96                             0
t97                             0
t98                             0
t99                             0
t100                            0
t101                            0
t102                            0
t103                            0
t104                            0
t105                            0
t106                            0
t107                            0
t108                            1
t109                            0
t110                            1
t111                            0
t112                            0
t113                            1
